g3 2 1 0	# problem tmp
 22 20 1 0 10	# vars, constraints, objectives, ranges, eqns
 1 1 8 0	# nonlinear constrs, objs; ccons: lin, nonlin
 0 0	# network constraints: nonlinear, linear
 1 5 0	# nonlinear vars in constraints, objectives, both
 0 0 0 1	# linear network variables; functions; arith, flags
 0 0 0 0 0	# discrete variables: binary, integer, nonlinear (b,c,o)
 41 4	# nonzeros in Jacobian, gradients
 0 0	# max name lengths: constraints, variables
 0 0 0 0 0	# common exprs: b,c,o,c1,o1
C0
o16
o5
v0
n2
C1
n0
C2
n0
C3
n0
C4
n0
C5
n0
C6
n0
C7
n0
C8
n0
C9
n0
C10
n0
C11
n0
C12
n0
C13
n0
C14
n0
C15
n0
C16
n0
C17
n0
C18
n0
C19
n0
O0 1
o2
o1
v1
v3
o1
v2
v4
x22
0 0
1 3
2 0
3 0
4 -1
5 0
6 3
7 0
8 0
9 -1
10 0
11 0
12 0
13 0
14 0
15 0
16 0
17 0
18 0
19 0
20 0
21 1
r
1 0
1 0.75
4 -1
4 0
4 0.25
4 1
4 0
4 -1
5 1 11
4 0
5 1 13
5 1 14
4 0
5 1 16
4 0
5 1 18
5 1 19
5 1 20
5 1 21
4 0
b
3
3
3
3
3
3
3
3
3
2 -1
2 0
2 0
2 0
2 0
2 0
2 0
2 0
2 0
2 0
2 0
2 0
2 0
k21
4
7
10
13
16
19
22
24
27
29
30
31
32
33
34
35
36
37
38
39
40
J0 2
0 0
5 -1
J1 2
6 0.25
8 1
J2 2
10 1
16 -1
J3 3
0 2
13 1
19 -1
J4 2
11 1
17 -1
J5 2
14 1
20 -1
J6 2
12 1
18 -1
J7 2
15 1
21 -1
J8 2
1 1
5 -1
J9 2
1 -1
6 1
J10 2
1 1
7 -1
J11 2
0 -1
2 1
J12 2
2 -1
8 1
J13 2
2 1
9 -1
J14 2
3 1
5 -1
J15 2
3 -1
6 1
J16 2
3 -1
7 1
J17 2
0 1
4 -1
J18 2
4 -1
8 1
J19 2
4 1
9 -1
G0 4
1 0
2 0
3 0
4 0
